100 100
37 55 59 28 34 56 27 56 66 30 48 52 44 63 52 74 43 25 62 36 60 54 43 42 49 28 66 33 64 61 25 26 60 40 74 72 63 63 26 43 71 71 74 61 43 55 40 41 46 56
50 35 42 66 51 47 62 34 51 67 51 33 43 26 48 62 33 69 57 72 68 38 52 44 67 70 68 40 62 43 61 26 63 55 30 37 60 27 64 60 27 50 73 30 39 39 47 38 60 38
1850 1925 2478 1848 1734 2632 1674 1904 3366 2010 2448 1716 1892 1638 2496 4588 1419 1725 3534 2592 4080 2052 2236 1848 3283 1960 4488 1320 3968 2623 1525 676 3780 2200 2220 2664 3780 1701 1664 2580 1917 3550 5402 1830 1677 2145 1880 1558 2760 2128